NAME : P112222.22225.tour
COMMENT : Length = 22225
COMMENT : Found by LKH-3 [Keld Helsgaun] Tue Dec 17 14:07:02 2024
TYPE : TOUR
DIMENSION : 140
TOUR_SECTION
1
121
2
122
3
123
4
78
57
71
68
84
77
82
64
66
56
69
63
60
59
67
76
73
85
62
75
72
79
83
53
81
65
61
74
70
58
55
80
54
124
5
125
6
126
7
100
115
95
118
120
96
106
89
92
112
119
109
108
105
113
90
114
102
88
116
104
97
103
117
87
86
93
111
94
110
91
107
98
101
99
127
8
128
9
129
10
130
11
131
12
132
13
35
43
44
33
28
32
41
45
22
36
29
49
26
52
42
39
24
46
47
38
34
23
25
40
51
50
48
37
27
30
21
31
133
14
134
15
135
16
136
17
137
18
138
19
139
20
140
-1
EOF
